500
    1   274   274
    2   447   447
    3   571   571
    4   483   483
    5    61    61
    6   425   425
    7   658   658
    8   609   609
    9   535   535
   10   514   514
   11   792   792
   12   998   998
   13   560   560
   14    34    34
   15   370   370
   16   304   304
   17   584   584
   18   495   495
   19   889   889
   20   743   743
   21     6     6
   22   400   400
   23   466   466
   24    32    32
   25   919   919
   26   612   612
   27   139   139
   28   535   535
   29   383   383
   30   336   336
   31    27    27
   32   809   809
   33   896   896
   34   735   735
   35   911   911
   36   599   599
   37   628   628
   38   427   427
   39   933   933
   40   966   966
   41   176   176
   42   954   954
   43   254   254
   44   780   780
   45   279   279
   46   677   677
   47   589   589
   48   829   829
   49   407   407
   50   370   370
   51   127   127
   52   203   203
   53   933   933
   54   457   457
   55   126   126
   56    20    20
   57   624   624
   58   523   523
   59   462   462
   60   677   677
   61   596   596
   62   590   590
   63   970   970
   64   125   125
   65   382   382
   66   189   189
   67   516   516
   68   156   156
   69   895   895
   70   180   180
   71   760   760
   72   354   354
   73   423   423
   74   946   946
   75    35    35
   76   444   444
   77   223   223
   78   951   951
   79   517   517
   80   976   976
   81   258   258
   82   517   517
   83   888   888
   84    18    18
   85   489   489
   86   602   602
   87    20    20
   88   664   664
   89   898   898
   90   339   339
   91   345   345
   92    96    96
   93   876   876
   94   909   909
   95   776   776
   96   817   817
   97   938   938
   98   109   109
   99   663   663
  100   230   230
  101   825   825
  102   344   344
  103   751   751
  104   983   983
  105   112   112
  106   164   164
  107   235   235
  108   618   618
  109    99    99
  110   269   269
  111   622   622
  112   895   895
  113   276   276
  114   387   387
  115   689   689
  116   161   161
  117   567   567
  118   865   865
  119   473   473
  120   912   912
  121   327   327
  122   297   297
  123   833   833
  124   595   595
  125   162   162
  126   394   394
  127   761   761
  128    42    42
  129   894   894
  130   379   379
  131   355   355
  132   970   970
  133   359   359
  134   690   690
  135   941   941
  136    66    66
  137   719   719
  138   261   261
  139   240   240
  140    26    26
  141   320   320
  142   522   522
  143   972   972
  144   180   180
  145   305   305
  146     2     2
  147    22    22
  148   890   890
  149   578   578
  150   727   727
  151   471   471
  152   703   703
  153   237   237
  154   719   719
  155   730   730
  156   994   994
  157   739   739
  158    17    17
  159   201   201
  160   244   244
  161   872   872
  162   764   764
  163   580   580
  164   899   899
  165   461   461
  166   278   278
  167   664   664
  168   647   647
  169   264   264
  170   666   666
  171   808   808
  172   529   529
  173   306   306
  174   539   539
  175   435   435
  176   148   148
  177    69    69
  178   565   565
  179   290   290
  180   459   459
  181   479   479
  182   187   187
  183    91    91
  184   802   802
  185    71    71
  186   986   986
  187   294   294
  188   241   241
  189   459   459
  190    45    45
  191   668   668
  192   579   579
  193   844   844
  194   466   466
  195   375   375
  196   237   237
  197   879   879
  198    89    89
  199   467   467
  200   705   705
  201   216   216
  202   341   341
  203   471   471
  204    58    58
  205    77    77
  206   243   243
  207   263   263
  208    34    34
  209   684   684
  210   960   960
  211   169   169
  212   520   520
  213   546   546
  214   839   839
  215   953   953
  216   997   997
  217   505   505
  218   135   135
  219   644   644
  220   333   333
  221   389   389
  222   730   730
  223   606   606
  224   515   515
  225   780   780
  226   850   850
  227   648   648
  228   204   204
  229   496   496
  230    79    79
  231   369   369
  232   446   446
  233   978   978
  234   628   628
  235   336   336
  236   626   626
  237   180   180
  238   367   367
  239   995   995
  240   172   172
  241   794   794
  242   782   782
  243   175   175
  244   595   595
  245   582   582
  246    47    47
  247    93    93
  248   804   804
  249   704   704
  250   800   800
  251   989   989
  252   753   753
  253   598   598
  254   757   757
  255   378   378
  256   687   687
  257   557   557
  258   888   888
  259   234   234
  260   469   469
  261   100   100
  262    99    99
  263   872   872
  264   392   392
  265   137   137
  266   689   689
  267   919   919
  268   651   651
  269   555   555
  270   810   810
  271   397   397
  272   612   612
  273   988   988
  274   621   621
  275   953   953
  276   722   722
  277   344   344
  278   736   736
  279   611   611
  280   594   594
  281   430   430
  282   979   979
  283   231   231
  284   425   425
  285   434   434
  286   658   658
  287   486   486
  288   692   692
  289   164   164
  290     9     9
  291   289   289
  292   915   915
  293   561   561
  294   298   298
  295   354   354
  296   132   132
  297   299   299
  298    97    97
  299   313   313
  300   291   291
  301    88    88
  302   793   793
  303   415   415
  304   207   207
  305   780   780
  306   800   800
  307   291   291
  308   280   280
  309   524   524
  310    21    21
  311   583   583
  312   581   581
  313   585   585
  314   482   482
  315   446   446
  316   130   130
  317   220   220
  318   228   228
  319   436   436
  320    78    78
  321   444   444
  322   207   207
  323   561   561
  324   274   274
  325   897   897
  326   455   455
  327   468   468
  328   758   758
  329    84    84
  330   673   673
  331   385   385
  332   622   622
  333   389   389
  334   768   768
  335    62    62
  336   657   657
  337   696   696
  338   371   371
  339   576   576
  340   346   346
  341    61    61
  342   763   763
  343   732   732
  344   111   111
  345   483   483
  346    27    27
  347   964   964
  348   895   895
  349   281   281
  350   616   616
  351   785   785
  352   217   217
  353   385   385
  354   544   544
  355    72    72
  356   839   839
  357   409   409
  358   431   431
  359    34    34
  360   417   417
  361   486   486
  362   460   460
  363    75    75
  364     6     6
  365   383   383
  366    66    66
  367    79    79
  368   142   142
  369   451   451
  370    50    50
  371   500   500
  372   458   458
  373    17    17
  374   550   550
  375    16    16
  376   525   525
  377   506   506
  378   848   848
  379   224   224
  380   444   444
  381    85    85
  382   409   409
  383   889   889
  384   952   952
  385   647   647
  386   622   622
  387   303   303
  388    37    37
  389   924   924
  390    85    85
  391   520   520
  392   802   802
  393   222   222
  394   549   549
  395   908   908
  396   657   657
  397     9     9
  398    11    11
  399   276   276
  400    33    33
  401   289   289
  402   513   513
  403   203   203
  404   630   630
  405   769   769
  406   121   121
  407    37    37
  408   435   435
  409   601   601
  410   895   895
  411   683   683
  412   509   509
  413   419   419
  414   804   804
  415   768   768
  416   144   144
  417   522   522
  418   159   159
  419   748   748
  420   440   440
  421   639   639
  422   310   310
  423   618   618
  424   750   750
  425   841   841
  426   210   210
  427   711   711
  428   506   506
  429   376   376
  430   656   656
  431   386   386
  432   951   951
  433   423   423
  434    44    44
  435   850   850
  436   290   290
  437    76    76
  438    56    56
  439   417   417
  440   212   212
  441   340   340
  442   530   530
  443   515   515
  444   423   423
  445   280   280
  446   252   252
  447   738   738
  448   157   157
  449   246   246
  450   405   405
  451   146   146
  452   988   988
  453   614   614
  454   181   181
  455   276   276
  456   478   478
  457     2     2
  458   989   989
  459   257   257
  460   861   861
  461   848   848
  462   501   501
  463   813   813
  464   324   324
  465   975   975
  466    79    79
  467   869   869
  468  1000  1000
  469   804   804
  470   256   256
  471   470   470
  472   269   269
  473   704   704
  474   831   831
  475   420   420
  476   757   757
  477   255   255
  478   710   710
  479    99    99
  480   299   299
  481   392   392
  482   142   142
  483   838   838
  484   534   534
  485   380   380
  486   871   871
  487   362   362
  488   945   945
  489   933   933
  490   588   588
  491   941   941
  492   543   543
  493   764   764
  494   373   373
  495   240   240
  496   516   516
  497   271   271
  498   806   806
  499   159   159
  500   934   934
121487
